<number of tasks>
50

<cycle time>
1000

<order strength>
0.202


<task times>
1 288
2 76
3 76
4 250
5 130
6 192
7 118
8 193
9 262
10 174
11 140
12 155
13 73
14 109
15 279
16 123
17 69
18 88
19 24
20 73
21 93
22 128
23 101
24 24
25 152
26 77
27 62
28 71
29 250
30 108
31 136
32 243
33 67
34 243
35 158
36 189
37 169
38 130
39 208
40 78
41 87
42 213
43 149
44 348
45 147
46 79
47 117
48 124
49 164
50 193

<precedence relations>
2,33
3,12
3,40
6,11
6,13
7,9
7,10
9,18
10,16
10,17
11,14
12,34
13,15
14,19
14,20
15,23
16,22
17,50
18,21
19,24
22,26
22,28
22,30
23,25
23,27
23,29
23,31
23,32
23,34
23,35
26,33
28,34
28,35
29,36
30,32
30,36
30,44
31,37
33,44
34,38
36,39
36,41
36,42
37,40
37,43
38,47
41,45
41,48
42,49
42,50
43,46

<end>
